NAME : a280
COMMENT : Tour length 3443
TYPE : TOUR
DIMENSION : 280
TOUR_SECTION
1
237
236
235
234
233
232
249
248
242
243
245
246
231
238
239
240
241
244
247
250
251
230
229
228
227
226
225
224
223
222
221
220
219
218
217
216
215
214
213
212
211
210
207
206
205
204
203
202
199
200
201
198
197
196
195
194
192
191
190
188
189
186
187
185
184
183
180
179
178
177
176
181
182
174
107
106
173
172
171
170
102
103
78
77
69
68
33
34
35
36
37
38
39
40
41
46
47
48
49
50
51
52
53
54
55
56
57
58
59
44
45
42
43
60
61
116
86
85
84
87
113
114
115
117
118
62
63
64
65
66
67
70
71
72
73
74
75
76
79
80
81
82
83
88
112
111
110
105
104
108
109
89
90
91
92
97
96
95
94
93
98
99
100
101
169
168
167
166
165
164
163
162
161
175
160
159
158
157
119
120
121
122
123
124
131
130
21
20
19
132
133
18
17
16
271
272
273
274
6
5
4
277
276
275
9
7
8
10
11
12
13
14
24
23
25
22
26
27
28
29
32
31
30
125
126
127
128
129
154
155
153
156
152
151
150
149
147
146
145
144
143
142
141
148
139
140
264
269
270
134
135
136
268
267
137
138
266
265
263
261
262
257
256
255
252
209
208
253
254
258
259
260
278
279
3
2
280
15
193
1
-1
EOF